proyfinal/src/viki/013/experimentInOfficeAgust.take6.output/b0a5e46f-5822-4759-8829-634a76cb29d4.als.out
Reading from standard input... Use '--help' for help.
============================[ Problem Statistics ]=============================
|                                                                             |
|  Number of variables:         87638                                         |
|  Number of clauses:          161767                                         |
|  Parse time:                   0.04 s                                       |
|                                                                             |
============================[ Search Statistics ]==============================
| Conflicts |          ORIGINAL         |          LEARNT          | Progress |
|           |    Vars  Clauses Literals |    Limit  Clauses Lit/Cl |          |
===============================================================================
|       100 |   62765   106561   266189 |    39072      100     16 | 28.382 % |
|       250 |   62765   106561   266189 |    42979      250     18 | 28.382 % |
|       475 |   62765   106561   266189 |    47277      475     40 | 28.382 % |
|       812 |   62747   106487   266018 |    52005      811     62 | 28.402 % |
|      1318 |   62747   106487   266018 |    57205     1317     87 | 28.402 % |
|      2077 |   62729   106413   265847 |    62926     2075     76 | 28.423 % |
|      3216 |   62683   106221   265407 |    69219     3210     67 | 28.475 % |
|      4924 |   62658   106077   265088 |    76140     4905     78 | 28.504 % |
|      7486 |   62658   106077   265088 |    83755     7467     85 | 28.504 % |
|     11330 |   62658   106077   265088 |    92130    11311     96 | 28.504 % |
|     17096 |   52448    74634   187535 |   101343    16226     83 | 40.154 % |
===============================================================================
restarts              : 63
conflicts             : 18198          (7529 /sec)
decisions             : 54371          (0.00 % random) (22494 /sec)
propagations          : 22334614       (9240314 /sec)
conflict literals     : 1494905        (49.27 % deleted)
Memory used           : 32.38 MB
CPU time              : 2.41708 s

UNSATISFIABLE
